SDVRP instances/custom_instances/p10_9_split0.vrp
NAME:p10_9_split
BEST_KNOWN: 0
COMMENT: 0
DIMENSION: 928
CAPACITY: 200
EDGE_WEIGHT_FORMAT: FUNCTION
EDGE_WEIGHT_TYPE: EXACT_2D
NODE_COORD_SECTION
1 0.00000 0.00000
2 -9 29
3 -9 29
4 -9 29
5 35 -8
6 35 -8
7 35 -8
8 3 30
9 3 30
10 3 30
11 3 30
12 3 30
13 15 -23
14 15 -23
15 15 -23
16 15 -23
17 -43 21
18 -43 21
19 -43 21
20 -43 21
21 -43 21
22 -11 37
23 -11 37
24 -11 37
25 -11 37
26 -11 37
27 -11 37
28 -11 37
29 -11 37
30 -42 2
31 -42 2
32 -42 2
33 40 -48
34 40 -48
35 40 -48
36 40 -48
37 40 -48
38 40 -48
39 40 -48
40 -35 26
41 -35 26
42 -35 26
43 -35 26
44 -35 26
45 -35 26
46 -35 26
47 8 -38
48 8 -38
49 8 -38
50 9 -29
51 9 -29
52 9 -29
53 9 -29
54 -15 -23
55 -15 -23
56 -1 -27
57 -1 -27
58 -1 -27
59 -1 -27
60 0 9
61 0 9
62 0 9
63 0 9
64 0 9
65 -13 29
66 -13 29
67 -13 29
68 24 -42
69 24 -42
70 24 -42
71 -31 32
72 -31 32
73 -31 32
74 -31 32
75 -31 32
76 -31 32
77 16 1
78 16 1
79 16 1
80 16 1
81 16 1
82 20 37
83 20 37
84 20 37
85 20 37
86 40 17
87 40 17
88 35 25
89 35 25
90 35 25
91 35 25
92 35 25
93 35 25
94 -26 -38
95 -26 -38
96 -26 -38
97 -7 -44
98 -7 -44
99 -7 -44
100 -7 -44
101 -1 49
102 -1 49
103 -1 49
104 -1 49
105 -1 49
106 -1 49
107 -1 49
108 -32 24
109 -32 24
110 -32 24
111 -32 24
112 -45 -26
113 -45 -26
114 -45 -26
115 43 -10
116 43 -10
117 43 -10
118 43 -10
119 10 -28
120 10 -28
121 10 -28
122 10 -28
123 10 -28
124 -3 -8
125 -3 -8
126 -3 -8
127 -3 -8
128 -3 -8
129 -3 -8
130 -3 -8
131 -3 -8
132 34 -30
133 34 -30
134 34 -30
135 34 -30
136 -7 -41
137 -7 -41
138 -8 -30
139 -8 -30
140 -8 -30
141 -8 -30
142 -8 -30
143 -8 -30
144 -31 -29
145 -31 -29
146 -31 -29
147 -31 -29
148 -31 -29
149 -31 -29
150 18 21
151 18 21
152 18 21
153 9 -22
154 9 -22
155 9 -22
156 9 -22
157 9 -22
158 9 -22
159 9 -22
160 -44 -22
161 -44 -22
162 -44 -22
163 -44 -22
164 -44 -22
165 -34 -50
166 -34 -50
167 -34 -50
168 -34 -50
169 -34 -50
170 -45 29
171 -45 29
172 -45 29
173 -45 29
174 -45 29
175 -45 29
176 -45 29
177 -2 -8
178 -2 -8
179 -2 -8
180 -2 -8
181 -35 -41
182 -35 -41
183 -13 5
184 -13 5
185 -13 5
186 -13 5
187 -19 -23
188 -19 -23
189 -19 -23
190 -19 -23
191 -19 -23
192 -19 -23
193 2 33
194 2 33
195 2 33
196 2 33
197 2 33
198 2 33
199 2 33
200 2 33
201 -20 -1
202 -20 -1
203 -20 -1
204 -20 -1
205 -20 -1
206 22 -4
207 22 -4
208 22 -4
209 22 -4
210 48 -39
211 48 -39
212 48 -39
213 48 -39
214 48 -39
215 14 23
216 14 23
217 14 23
218 14 23
219 14 23
220 -23 -10
221 -23 -10
222 -21 -17
223 -21 -17
224 -21 -17
225 -21 -17
226 -21 -17
227 -21 -17
228 -21 -17
229 29 14
230 29 14
231 29 14
232 29 14
233 29 14
234 29 14
235 29 14
236 -14 -17
237 -14 -17
238 -14 -17
239 -14 -17
240 -14 -17
241 -14 -17
242 -14 -17
243 -26 12
244 -26 12
245 -26 12
246 -26 12
247 -26 12
248 -26 12
249 17 -22
250 17 -22
251 17 -22
252 17 -22
253 17 -22
254 -27 -33
255 -27 -33
256 -27 -33
257 -27 -33
258 -27 -33
259 36 31
260 36 31
261 36 31
262 -2 -29
263 -2 -29
264 -2 -29
265 -2 -29
266 -2 -29
267 -2 -29
268 -2 -29
269 -42 -43
270 -42 -43
271 -42 -43
272 -42 -43
273 -15 46
274 -15 46
275 -15 46
276 -15 46
277 -15 46
278 -15 46
279 -15 46
280 11 6
281 11 6
282 11 6
283 11 6
284 11 6
285 -11 34
286 -11 34
287 -42 -11
288 -42 -11
289 -42 -11
290 -42 -11
291 -42 -11
292 -42 -11
293 -24 6
294 -24 6
295 -24 6
296 -43 42
297 -43 42
298 -43 42
299 -47 -13
300 -47 -13
301 -47 -13
302 -47 -13
303 -47 -13
304 -25 -1
305 -25 -1
306 -25 -1
307 -25 -1
308 -25 -1
309 -11 -25
310 -11 -25
311 -11 -25
312 -11 -25
313 -11 -25
314 -11 -25
315 -42 47
316 -42 47
317 -42 47
318 31 -41
319 31 -41
320 31 -41
321 31 -41
322 31 -41
323 31 -41
324 -5 -40
325 -5 -40
326 -5 -40
327 -5 -40
328 -5 -40
329 -32 -37
330 -32 -37
331 -32 -37
332 -46 10
333 -46 10
334 -46 10
335 -46 10
336 -46 10
337 -46 10
338 -10 15
339 -10 15
340 -10 15
341 -10 15
342 -10 15
343 -2 -11
344 -2 -11
345 -2 -11
346 -2 -11
347 -2 -11
348 -28 30
349 -28 30
350 -28 30
351 -28 30
352 -28 30
353 -28 30
354 -28 30
355 -50 23
356 -50 23
357 -50 23
358 -50 23
359 10 35
360 10 35
361 10 35
362 10 35
363 10 35
364 10 35
365 3 -4
366 3 -4
367 3 -4
368 3 -4
369 -35 -40
370 -35 -40
371 -35 -40
372 -35 -40
373 28 -2
374 28 -2
375 28 -2
376 -48 38
377 -48 38
378 -48 38
379 -48 38
380 -48 38
381 -48 38
382 -42 -24
383 -42 -24
384 -42 -24
385 -42 -24
386 -42 -24
387 20 40
388 20 40
389 20 40
390 20 40
391 20 40
392 20 40
393 0 -43
394 0 -43
395 0 -43
396 0 -43
397 0 -43
398 0 -43
399 28 12
400 28 12
401 28 12
402 28 12
403 28 12
404 28 12
405 -11 35
406 -11 35
407 -11 35
408 -11 35
409 -11 35
410 34 -18
411 34 -18
412 34 -18
413 34 -18
414 34 -18
415 34 -18
416 -22 -23
417 -22 -23
418 -22 -23
419 -22 -23
420 -22 -23
421 31 -8
422 31 -8
423 31 -8
424 31 -8
425 31 -8
426 9 22
427 9 22
428 9 22
429 9 22
430 9 22
431 -20 27
432 -20 27
433 -20 27
434 -20 27
435 -20 27
436 -20 27
437 -37 -36
438 -37 -36
439 -37 -36
440 -37 -36
441 -37 -36
442 -37 -36
443 37 -30
444 37 -30
445 37 -30
446 37 -30
447 37 -30
448 39 -17
449 39 -17
450 20 28
451 20 28
452 20 28
453 23 -5
454 23 -5
455 23 -5
456 23 -5
457 23 -5
458 23 -5
459 23 -5
460 7 39
461 7 39
462 7 39
463 7 39
464 7 39
465 7 39
466 -45 40
467 -45 40
468 44 -10
469 44 -10
470 44 -10
471 44 -10
472 44 -10
473 34 -36
474 34 -36
475 34 -36
476 34 -36
477 34 -36
478 -43 -48
479 -43 -48
480 -43 -48
481 -19 17
482 -19 17
483 -19 17
484 -42 3
485 -42 3
486 -42 3
487 18 7
488 18 7
489 18 7
490 18 7
491 -22 -39
492 -22 -39
493 -22 -39
494 24 3
495 24 3
496 24 3
497 36 -17
498 36 -17
499 -29 -23
500 -29 -23
501 -29 -23
502 -29 -23
503 -29 -23
504 -29 -23
505 36 -14
506 36 -14
507 36 -14
508 36 -14
509 36 -14
510 40 -33
511 40 -33
512 40 -33
513 40 -33
514 40 -33
515 -22 -39
516 -22 -39
517 -22 -39
518 -22 -39
519 7 43
520 7 43
521 7 43
522 7 43
523 7 43
524 7 43
525 7 43
526 35 18
527 35 18
528 35 18
529 -36 -12
530 -36 -12
531 -36 -12
532 -36 -12
533 -36 -12
534 -36 -12
535 -45 10
536 -45 10
537 -45 10
538 -45 10
539 -45 10
540 -45 10
541 -44 26
542 -44 26
543 -44 26
544 -44 26
545 -34 -2
546 -34 -2
547 -34 -2
548 -34 -2
549 -25 -32
550 -25 -32
551 -25 -32
552 -25 -32
553 -35 -34
554 -35 -34
555 -35 -34
556 -35 -34
557 -35 -34
558 -35 -34
559 -35 -34
560 32 -22
561 32 -22
562 32 -22
563 32 -22
564 32 -22
565 32 -22
566 32 -22
567 32 -22
568 44 20
569 44 20
570 44 20
571 -25 31
572 -25 31
573 45 -29
574 45 -29
575 45 -29
576 45 -29
577 45 -29
578 45 -29
579 45 -29
580 -5 9
581 -5 9
582 -5 9
583 -5 9
584 -5 9
585 -5 9
586 -49 5
587 -49 5
588 -11 40
589 -11 40
590 -11 40
591 -11 40
592 -11 40
593 -11 40
594 -11 40
595 -11 40
596 28 -23
597 28 -23
598 28 -23
599 -9 30
600 -9 30
601 -9 30
602 -9 30
603 -9 30
604 -9 30
605 -9 30
606 39 49
607 39 49
608 -14 46
609 -14 46
610 -14 46
611 -14 46
612 -14 46
613 -26 -4
614 -26 -4
615 -26 -4
616 -26 -4
617 -26 -4
618 14 15
619 14 15
620 14 15
621 14 15
622 34 43
623 34 43
624 34 43
625 34 43
626 49 -15
627 49 -15
628 49 -15
629 49 -15
630 -20 36
631 -20 36
632 -20 36
633 -20 36
634 43 -23
635 43 -23
636 -3 -15
637 -3 -15
638 -3 -15
639 -3 -15
640 -3 -15
641 -3 -15
642 -3 -15
643 -3 -15
644 -18 -23
645 -18 -23
646 -18 -23
647 -18 -23
648 -18 -23
649 -18 -23
650 30 -24
651 30 -24
652 30 -24
653 30 -24
654 30 -24
655 30 -24
656 -25 26
657 -25 26
658 -25 26
659 -25 26
660 -25 26
661 45 -24
662 45 -24
663 -5 -33
664 -5 -33
665 -5 -33
666 -5 -33
667 -5 -33
668 -5 -33
669 -37 42
670 -37 42
671 -12 -45
672 -12 -45
673 -12 -45
674 -10 33
675 -10 33
676 -10 33
677 -10 33
678 -10 33
679 -7 -5
680 -7 -5
681 -7 -5
682 -7 -5
683 -7 -5
684 23 43
685 23 43
686 -27 10
687 -27 10
688 -27 10
689 -27 10
690 -27 10
691 -27 10
692 11 -36
693 11 -36
694 11 -36
695 21 -42
696 21 -42
697 21 -42
698 21 -42
699 21 -42
700 37 -17
701 37 -17
702 37 -17
703 37 -17
704 -27 11
705 -27 11
706 -38 41
707 -38 41
708 -38 41
709 -38 41
710 -38 41
711 49 -33
712 49 -33
713 49 -33
714 49 -33
715 49 -33
716 49 -33
717 39 34
718 39 34
719 39 34
720 39 34
721 39 34
722 39 34
723 32 8
724 32 8
725 33 48
726 33 48
727 33 48
728 -28 29
729 -28 29
730 -28 29
731 -28 29
732 50 28
733 50 28
734 45 -28
735 45 -28
736 45 -28
737 45 -28
738 -42 4
739 -42 4
740 39 -45
741 39 -45
742 39 -45
743 39 -45
744 39 -45
745 5 29
746 5 29
747 5 29
748 5 29
749 5 29
750 5 29
751 21 -37
752 21 -37
753 21 -37
754 21 -37
755 -16 30
756 -16 30
757 -16 30
758 -16 30
759 -16 30
760 -35 0
761 -35 0
762 27 46
763 27 46
764 27 46
765 27 46
766 27 46
767 27 46
768 17 42
769 17 42
770 17 42
771 17 42
772 17 42
773 17 42
774 28 -34
775 28 -34
776 28 -34
777 28 -34
778 28 -34
779 -11 3
780 -11 3
781 -11 3
782 38 4
783 38 4
784 38 4
785 38 4
786 38 4
787 38 4
788 38 4
789 -10 33
790 -10 33
791 -10 33
792 -10 33
793 -10 33
794 -10 33
795 -10 33
796 -5 -2
797 -5 -2
798 -5 -2
799 -5 -2
800 -5 -2
801 -5 -2
802 -5 -2
803 -7 33
804 -7 33
805 -7 33
806 42 -1
807 42 -1
808 42 -1
809 42 -1
810 42 -1
811 42 -1
812 42 -1
813 16 40
814 16 40
815 16 40
816 50 -14
817 50 -14
818 50 -14
819 50 -14
820 50 -14
821 50 -14
822 6 -40
823 6 -40
824 6 -40
825 49 -13
826 49 -13
827 49 -13
828 -25 26
829 -25 26
830 -25 26
831 -25 26
832 -25 26
833 -25 26
834 -25 26
835 -3 -48
836 -3 -48
837 -3 -48
838 -3 -48
839 3 -34
840 3 -34
841 3 -34
842 3 -34
843 3 -34
844 3 -34
845 -20 -47
846 -20 -47
847 -20 -47
848 -20 -47
849 -20 -47
850 46 11
851 46 11
852 46 11
853 46 11
854 46 11
855 34 -44
856 34 -44
857 34 -44
858 -16 42
859 -16 42
860 -16 42
861 -16 42
862 -16 42
863 -16 21
864 -16 21
865 -16 21
866 -16 21
867 -24 -17
868 -24 -17
869 -24 -17
870 -24 -17
871 -24 -17
872 -24 -17
873 -24 -17
874 -24 -17
875 43 -10
876 43 -10
877 43 -10
878 43 -10
879 43 -10
880 43 -10
881 43 -10
882 43 -10
883 -40 -8
884 -40 -8
885 -40 -8
886 -16 42
887 -16 42
888 -16 42
889 -16 42
890 -37 -28
891 -37 -28
892 -45 -30
893 -45 -30
894 -45 -30
895 -38 -28
896 -38 -28
897 -38 -28
898 -38 -28
899 -8 23
900 -8 23
901 -8 23
902 -8 23
903 -8 23
904 -8 23
905 -8 23
906 -2 -35
907 -2 -35
908 -2 -35
909 7 2
910 7 2
911 7 2
912 -21 31
913 -21 31
914 -21 31
915 -21 31
916 -21 31
917 -21 31
918 -2 47
919 -2 47
920 -2 47
921 -2 47
922 -2 47
923 -2 47
924 -1 8
925 -1 8
926 -1 8
927 -1 8
928 -1 8
DEMAND_SECTION
1 0
2 40
3 20
4 2
5 40
6 2
7 1
8 40
9 2
10 2
11 2
12 1
13 20
14 10
15 2
16 2
17 40
18 2
19 2
20 2
21 2
22 40
23 40
24 10
25 2
26 2
27 2
28 2
29 1
30 20
31 10
32 1
33 40
34 40
35 10
36 2
37 2
38 2
39 2
40 40
41 20
42 10
43 2
44 2
45 2
46 2
47 40
48 20
49 2
50 40
51 20
52 2
53 1
54 40
55 20
56 40
57 40
58 2
59 1
60 20
61 2
62 2
63 2
64 2
65 40
66 20
67 1
68 40
69 10
70 2
71 40
72 20
73 2
74 2
75 2
76 1
77 20
78 10
79 2
80 2
81 1
82 40
83 2
84 2
85 1
86 40
87 20
88 40
89 20
90 10
91 2
92 2
93 1
94 40
95 2
96 2
97 20
98 10
99 2
100 1
101 20
102 10
103 2
104 2
105 2
106 2
107 1
108 20
109 2
110 2
111 1
112 40
113 10
114 2
115 40
116 10
117 2
118 1
119 40
120 20
121 2
122 2
123 2
124 40
125 20
126 10
127 2
128 2
129 2
130 2
131 1
132 40
133 10
134 2
135 1
136 20
137 10
138 40
139 20
140 10
141 2
142 2
143 2
144 40
145 40
146 2
147 2
148 2
149 2
150 20
151 10
152 1
153 40
154 10
155 2
156 2
157 2
158 2
159 1
160 40
161 10
162 2
163 2
164 2
165 40
166 20
167 10
168 2
169 1
170 40
171 20
172 2
173 2
174 2
175 2
176 1
177 40
178 40
179 2
180 2
181 40
182 10
183 40
184 2
185 2
186 2
187 40
188 40
189 10
190 2
191 2
192 2
193 40
194 20
195 10
196 2
197 2
198 2
199 2
200 1
201 20
202 10
203 2
204 2
205 1
206 40
207 2
208 2
209 2
210 40
211 20
212 10
213 2
214 2
215 40
216 20
217 10
218 2
219 1
220 40
221 40
222 40
223 20
224 2
225 2
226 2
227 2
228 1
229 40
230 20
231 2
232 2
233 2
234 2
235 1
236 20
237 10
238 2
239 2
240 2
241 2
242 1
243 20
244 10
245 2
246 2
247 2
248 2
249 40
250 20
251 2
252 2
253 2
254 40
255 40
256 2
257 2
258 2
259 40
260 10
261 1
262 40
263 40
264 2
265 2
266 2
267 2
268 1
269 20
270 10
271 2
272 2
273 40
274 40
275 2
276 2
277 2
278 2
279 1
280 20
281 10
282 2
283 2
284 1
285 20
286 10
287 40
288 20
289 2
290 2
291 2
292 2
293 40
294 20
295 10
296 20
297 10
298 2
299 40
300 40
301 2
302 2
303 2
304 20
305 10
306 2
307 2
308 2
309 40
310 40
311 2
312 2
313 2
314 2
315 40
316 40
317 1
318 20
319 10
320 2
321 2
322 2
323 1
324 20
325 2
326 2
327 2
328 1
329 40
330 2
331 1
332 40
333 40
334 2
335 2
336 2
337 2
338 40
339 40
340 2
341 2
342 1
343 20
344 10
345 2
346 2
347 1
348 40
349 10
350 2
351 2
352 2
353 2
354 1
355 20
356 10
357 2
358 1
359 20
360 10
361 2
362 2
363 2
364 1
365 40
366 2
367 2
368 2
369 40
370 40
371 10
372 1
373 20
374 10
375 2
376 40
377 20
378 2
379 2
380 2
381 1
382 40
383 10
384 2
385 2
386 1
387 40
388 40
389 2
390 2
391 2
392 1
393 40
394 10
395 2
396 2
397 2
398 2
399 40
400 40
401 2
402 2
403 2
404 2
405 40
406 2
407 2
408 2
409 1
410 40
411 10
412 2
413 2
414 2
415 2
416 40
417 10
418 2
419 2
420 2
421 40
422 10
423 2
424 2
425 2
426 20
427 2
428 2
429 2
430 2
431 20
432 10
433 2
434 2
435 2
436 2
437 40
438 20
439 10
440 2
441 2
442 2
443 40
444 10
445 2
446 2
447 2
448 20
449 10
450 40
451 40
452 1
453 40
454 10
455 2
456 2
457 2
458 2
459 1
460 40
461 20
462 10
463 2
464 2
465 2
466 40
467 2
468 40
469 40
470 10
471 2
472 1
473 20
474 2
475 2
476 2
477 2
478 40
479 20
480 1
481 20
482 10
483 1
484 40
485 2
486 1
487 40
488 2
489 2
490 1
491 40
492 10
493 2
494 20
495 10
496 1
497 40
498 2
499 40
500 2
501 2
502 2
503 2
504 1
505 20
506 10
507 2
508 2
509 2
510 40
511 40
512 10
513 2
514 2
515 20
516 10
517 2
518 1
519 20
520 10
521 2
522 2
523 2
524 2
525 1
526 40
527 20
528 2
529 20
530 10
531 2
532 2
533 2
534 1
535 40
536 20
537 2
538 2
539 2
540 1
541 40
542 20
543 2
544 2
545 40
546 10
547 2
548 1
549 40
550 20
551 10
552 1
553 40
554 20
555 10
556 2
557 2
558 2
559 1
560 40
561 20
562 10
563 2
564 2
565 2
566 2
567 1
568 40
569 40
570 20
571 40
572 20
573 20
574 10
575 2
576 2
577 2
578 2
579 1
580 20
581 10
582 2
583 2
584 2
585 2
586 40
587 40
588 40
589 40
590 10
591 2
592 2
593 2
594 2
595 1
596 40
597 10
598 1
599 40
600 10
601 2
602 2
603 2
604 2
605 1
606 40
607 2
608 40
609 40
610 10
611 2
612 2
613 40
614 40
615 2
616 2
617 1
618 40
619 2
620 2
621 2
622 40
623 10
624 2
625 1
626 20
627 2
628 2
629 1
630 40
631 2
632 2
633 1
634 40
635 10
636 40
637 20
638 10
639 2
640 2
641 2
642 2
643 1
644 40
645 40
646 2
647 2
648 2
649 1
650 40
651 40
652 2
653 2
654 2
655 1
656 40
657 20
658 10
659 2
660 2
661 20
662 10
663 40
664 10
665 2
666 2
667 2
668 1
669 40
670 40
671 20
672 10
673 2
674 40
675 40
676 10
677 2
678 1
679 20
680 2
681 2
682 2
683 1
684 40
685 40
686 20
687 10
688 2
689 2
690 2
691 2
692 40
693 10
694 2
695 40
696 20
697 10
698 2
699 2
700 40
701 2
702 2
703 2
704 40
705 10
706 40
707 20
708 10
709 2
710 1
711 20
712 10
713 2
714 2
715 2
716 2
717 40
718 20
719 2
720 2
721 2
722 2
723 20
724 10
725 40
726 20
727 2
728 40
729 20
730 10
731 2
732 40
733 10
734 40
735 2
736 2
737 2
738 40
739 2
740 40
741 40
742 10
743 2
744 1
745 40
746 20
747 2
748 2
749 2
750 1
751 40
752 10
753 2
754 1
755 40
756 40
757 2
758 2
759 1
760 20
761 10
762 20
763 10
764 2
765 2
766 2
767 2
768 40
769 20
770 2
771 2
772 2
773 1
774 40
775 2
776 2
777 2
778 1
779 40
780 10
781 2
782 20
783 10
784 2
785 2
786 2
787 2
788 1
789 40
790 40
791 10
792 2
793 2
794 2
795 2
796 40
797 20
798 2
799 2
800 2
801 2
802 1
803 40
804 40
805 10
806 40
807 10
808 2
809 2
810 2
811 2
812 1
813 40
814 20
815 1
816 40
817 20
818 2
819 2
820 2
821 1
822 40
823 40
824 10
825 40
826 20
827 10
828 40
829 20
830 10
831 2
832 2
833 2
834 2
835 40
836 10
837 2
838 2
839 40
840 40
841 10
842 2
843 2
844 1
845 40
846 20
847 2
848 2
849 1
850 40
851 40
852 2
853 2
854 1
855 40
856 40
857 1
858 40
859 40
860 10
861 2
862 1
863 40
864 10
865 2
866 2
867 40
868 40
869 10
870 2
871 2
872 2
873 2
874 1
875 40
876 20
877 10
878 2
879 2
880 2
881 2
882 1
883 40
884 20
885 1
886 40
887 20
888 2
889 2
890 40
891 40
892 40
893 40
894 2
895 20
896 10
897 2
898 2
899 40
900 40
901 10
902 2
903 2
904 2
905 2
906 40
907 2
908 1
909 40
910 10
911 2
912 40
913 40
914 2
915 2
916 2
917 1
918 40
919 40
920 2
921 2
922 2
923 1
924 20
925 2
926 2
927 2
928 2
DEPOT_SECTION
1
-1
EOF