SDVRP instances/custom_instances/p10_9_split0.sol
927 -1 3 64 65 66 754 758 756 757 755 -2 674 25 22 28 589 587 588 594 592 -24 27 277 274 275 273 272 276 278 609 610 611 607 608 590 591 593 -37 34 35 36 32 33 38 741 740 743 739 742 474 473 475 476 -54 53 646 191 419 415 501 498 499 503 500 866 872 869 870 -58 56 55 57 264 267 266 261 265 262 636 637 -61 63 60 62 59 11 193 196 199 198 195 194 192 197 461 459 358 361 359 362 360 363 748 749 -83 81 82 770 768 772 771 769 767 813 814 812 429 427 428 426 425 -84 766 763 765 761 764 762 726 724 725 605 606 621 623 624 622 -94 95 93 491 492 516 490 517 514 515 847 844 846 848 845 -109 110 108 107 42 41 44 39 43 45 40 71 75 70 74 72 73 353 350 351 832 828 -118 51 50 52 49 840 838 839 841 842 843 -119 121 122 120 693 691 692 46 48 47 822 823 -127 128 129 123 130 126 125 124 343 345 342 344 346 177 176 179 178 -131 134 513 510 512 509 511 446 442 443 444 597 596 -133 132 472 854 855 856 321 317 320 318 319 322 774 776 777 775 773 -139 136 135 671 670 672 98 96 97 99 834 835 836 837 325 327 326 324 323 664 665 667 666 263 -145 146 144 148 439 441 436 440 437 438 552 558 557 553 555 556 554 -147 143 254 255 253 549 550 551 548 -151 149 684 683 388 386 389 391 390 387 216 -155 154 158 156 157 153 152 14 12 15 13 250 249 252 251 248 364 -167 164 166 165 168 477 478 479 271 268 269 270 416 417 418 647 648 236 237 -170 378 376 375 379 377 380 465 466 707 709 705 706 -184 185 183 16 17 19 20 18 354 357 356 355 171 169 173 175 172 174 542 540 543 541 -218 217 215 214 451 450 449 150 617 618 619 620 -219 220 873 868 867 871 227 221 222 224 225 -230 234 233 229 228 398 401 399 403 400 402 487 488 486 489 -231 232 568 567 569 731 732 527 525 -238 241 226 223 370 371 369 368 180 181 330 329 328 256 257 -239 235 240 188 190 187 189 186 643 645 644 -245 243 242 247 244 246 704 703 687 685 686 689 688 690 292 294 293 -258 260 259 721 719 720 717 718 716 90 92 91 88 89 87 281 283 282 -279 280 493 495 494 785 787 784 781 786 783 782 805 807 808 810 811 806 809 374 373 372 -284 408 406 407 404 405 26 21 804 802 803 -305 303 304 760 759 544 545 547 546 612 613 614 615 616 -306 307 29 31 30 483 485 484 586 585 882 -313 312 310 308 311 309 140 141 142 137 138 642 638 635 -365 366 367 751 750 753 752 69 68 67 698 696 697 694 695 -383 382 384 385 381 113 112 111 160 162 161 159 163 530 533 529 532 531 528 -412 413 411 410 414 409 496 497 702 700 701 699 504 506 505 508 507 421 422 454 455 456 -420 6 5 4 447 448 661 660 633 634 566 565 562 -424 423 876 115 117 878 116 881 879 824 825 826 817 818 816 815 820 819 628 627 626 625 -452 458 457 453 205 207 206 208 79 80 77 78 76 908 909 910 -463 464 462 460 519 524 521 522 518 520 523 103 100 102 104 105 101 106 921 920 919 917 918 922 -469 471 468 470 467 877 874 880 114 875 -482 481 480 833 656 827 829 831 655 659 862 -502 890 889 896 895 894 897 893 892 891 679 -526 85 86 852 853 849 851 850 722 723 -534 538 539 535 536 537 336 331 332 333 334 335 737 738 -559 563 561 560 564 649 651 650 653 652 595 -570 571 348 349 347 352 729 727 730 728 830 658 657 -582 580 584 583 581 579 337 341 339 338 340 923 925 924 926 927 -598 601 602 677 788 675 793 673 789 794 790 792 676 791 -599 603 604 600 285 23 859 860 887 888 885 857 886 861 858 901 904 902 903 -630 632 631 629 915 914 916 912 911 913 432 434 430 431 435 433 865 864 863 -641 639 640 663 662 905 906 907 397 393 392 395 396 394 821 -654 445 212 209 211 210 213 715 712 710 711 714 713 576 577 575 578 572 574 573 735 734 733 736 -668 669 314 315 316 297 295 296 708 -678 682 681 680 291 288 286 287 290 289 299 298 301 300 302 884 883 -747 746 744 745 9 10 7 8 899 898 900 -778 779 780 182 201 202 204 203 200 796 795 801 799 798 797 800 0 





OBJ=
5459.046
BEST_KNOWN=
0.000